c Random generated cnf formula, satisfiable: true
p cnf 10 50
-9 -4 -1 0
4 8 -10 0
-6 -1 -5 0
-3 -1 8 0
-6 -2 7 0
-9 10 -6 0
8 3 4 0
9 -1 -7 0
2 -4 -7 0
-6 9 5 0
-10 1 3 0
-5 6 9 0
1 -3 9 0
-9 -1 10 0
-2 6 -1 0
1 5 -4 0
1 -10 7 0
6 -8 7 0
-2 6 -9 0
3 -4 -1 0
7 4 -1 0
-10 -2 -9 0
4 10 7 0
5 -7 9 0
-5 -1 7 0
6 -5 3 0
-2 9 -10 0
-6 -10 3 0
-8 7 -6 0
8 1 10 0
6 2 -4 0
-10 -4 -6 0
-6 -8 3 0
-4 -5 -6 0
-1 -8 3 0
-4 -5 -9 0
-5 -6 -2 0
-3 -8 2 0
2 -4 -7 0
3 -1 -4 0
7 -6 -8 0
1 4 -2 0
-5 -8 2 0
-6 3 7 0
-3 -5 4 0
-6 -2 8 0
7 -5 -8 0
-6 -3 -2 0
-9 10 -5 0
6 -8 -1 0
